certificates/rado_a15_c162_N34.drat
11 -32 0
-32 -33 -34 0
29 32 0
d 29 11 32 0
-12 32 0
-33 -34 0
d -32 -33 -34 0
32 -34 0
12 -34 0
-34 0
-12 0
30 0
16 0
-11 0
8 0
14 0
31 0
-32 0
15 0
9 0
29 0
-4 0
-2 0
-3 0
1 0
7 0
22 0
5 0
20 0
6 0
21 0
-28 0
-10 0
-33 0
25 0
0
